NAME      name
ROWS
 N  obj
 E  e1
 E  e2
 G  e3
 L  e4
 L  e5
 L  e6
 L  e7
 E  e8
 L  e9
 G  e10
 E  e11
 E  e12
 L  e13
 L  e14
 E  e15
 E  e16
 G  e17
 L  e18
 L  e19
 E  e20
 G  e21
 G  e22
 E  e23
 G  e24
 E  e25
 E  e26
 L  e27
 L  e28
 G  e29
 L  e30
COLUMNS
    x0        obj                  0
    x0        e1                  -2
    x0        e2                 -10
    x0        e3                   6
    x0        e4                   2
    x0        e5                   8
    x0        e6                  -1
    x0        e7                  -4
    x0        e8                   4
    x0        e9                   8
    x0        e10                  2
    x0        e11                  2
    x0        e12                 -2
    x0        e13                 -5
    x0        e14                  3
    x0        e15                  8
    x0        e16                 -7
    x0        e17                  5
    x0        e18                 -5
    x0        e19                  0
    x0        e20                  8
    x0        e21                  0
    x0        e22                  3
    x0        e23                 -9
    x0        e24                  6
    x0        e25                  6
    x0        e26                  4
    x0        e27                 -4
    x0        e28                  1
    x0        e29                  2
    x0        e30                  2
    x1        obj                  0
    x1        e1                   7
    x1        e2                   1
    x1        e3                  -7
    x1        e4                   2
    x1        e5                   1
    x1        e6                   6
    x1        e7                  -2
    x1        e8                   9
    x1        e9                   4
    x1        e10                 -9
    x1        e11                 -8
    x1        e12                -10
    x1        e13                 -5
    x1        e14                  4
    x1        e15                  9
    x1        e16                  3
    x1        e17                 -3
    x1        e18                  0
    x1        e19                 -1
    x1        e20                  2
    x1        e21                 -7
    x1        e22                 -7
    x1        e23                -10
    x1        e24                  3
    x1        e25                  4
    x1        e26                 -8
    x1        e27                -10
    x1        e28                  6
    x1        e29                  1
    x1        e30                  1
    x2        obj                  0
    x2        e1                   6
    x2        e2                   6
    x2        e3                  -4
    x2        e4                   3
    x2        e5                   1
    x2        e6                  -9
    x2        e7                   0
    x2        e8                  -3
    x2        e9                   0
    x2        e10                  9
    x2        e11                  1
    x2        e12                 10
    x2        e13                 -5
    x2        e14                  1
    x2        e15                 -6
    x2        e16                  3
    x2        e17                 -2
    x2        e18                  5
    x2        e19                  2
    x2        e20                  4
    x2        e21                  3
    x2        e22                 -6
    x2        e23                 -7
    x2        e24                  9
    x2        e25                 -9
    x2        e26                 -8
    x2        e27                 -9
    x2        e28                  0
    x2        e29                  6
    x2        e30                  6
    x3        obj                  0
    x3        e1                   7
    x3        e2                  -5
    x3        e3                  -5
    x3        e4                  10
    x3        e5                 -10
    x3        e6                  -5
    x3        e7                  -2
    x3        e8                   4
    x3        e9                   2
    x3        e10                 -5
    x3        e11                 -7
    x3        e12                  6
    x3        e13                 10
    x3        e14                  8
    x3        e15                 -6
    x3        e16                 -3
    x3        e17                 -9
    x3        e18                  3
    x3        e19                 10
    x3        e20                 -8
    x3        e21                 -2
    x3        e22                 -6
    x3        e23                  1
    x3        e24                 -4
    x3        e25                  5
    x3        e26                  5
    x3        e27                  2
    x3        e28                 -8
    x3        e29                  5
    x3        e30                  5
    x4        obj                  0
    x4        e1                   0
    x4        e2                  -4
    x4        e3                   4
    x4        e4                  10
    x4        e5                  -8
    x4        e6                  -6
    x4        e7                  -2
    x4        e8                   6
    x4        e9                   6
    x4        e10                  1
    x4        e11                 -7
    x4        e12                 -7
    x4        e13                 -3
    x4        e14                 -6
    x4        e15                  2
    x4        e16                  5
    x4        e17                  9
    x4        e18                 -5
    x4        e19                 -9
    x4        e20                 10
    x4        e21                 -5
    x4        e22                -10
    x4        e23                  5
    x4        e24                  4
    x4        e25                  9
    x4        e26                  2
    x4        e27                  7
    x4        e28                 -8
    x4        e29                 -3
    x4        e30                 -3
    x5        obj                  0
    x5        e1                   0
    x5        e2                  10
    x5        e3                  -8
    x5        e4                   2
    x5        e5                  -4
    x5        e6                  -6
    x5        e7                   6
    x5        e8                  -5
    x5        e9                   1
    x5        e10                 -8
    x5        e11                -10
    x5        e12                 -8
    x5        e13                  9
    x5        e14                  2
    x5        e15                -10
    x5        e16                  2
    x5        e17                  0
    x5        e18                  8
    x5        e19                 -1
    x5        e20                 -8
    x5        e21                  0
    x5        e22                  8
    x5        e23                  0
    x5        e24                  2
    x5        e25                 -7
    x5        e26                  8
    x5        e27                  9
    x5        e28                 -1
    x5        e29                 10
    x5        e30                 10
    x6        obj                  0
    x6        e1                  -4
    x6        e2                   1
    x6        e3                   3
    x6        e4                  -9
    x6        e5                  -7
    x6        e6                   5
    x6        e7                   4
    x6        e8                   0
    x6        e9                  10
    x6        e10                  3
    x6        e11                  1
    x6        e12                  0
    x6        e13                  0
    x6        e14                  8
    x6        e15                  3
    x6        e16                 -3
    x6        e17                  2
    x6        e18                 -1
    x6        e19                  7
    x6        e20                  3
    x6        e21                 10
    x6        e22                  9
    x6        e23                 -7
    x6        e24                 -2
    x6        e25                 -2
    x6        e26                  3
    x6        e27                  5
    x6        e28                  8
    x6        e29                  1
    x6        e30                  1
    x7        obj                  0
    x7        e1                   3
    x7        e2                  10
    x7        e3                  10
    x7        e4                   8
    x7        e5                   7
    x7        e6                  10
    x7        e7                  -6
    x7        e8                  10
    x7        e9                  -7
    x7        e10                 -9
    x7        e11                -10
    x7        e12                  1
    x7        e13                -10
    x7        e14                -10
    x7        e15                  3
    x7        e16                  2
    x7        e17                 10
    x7        e18                  6
    x7        e19                  3
    x7        e20                  7
    x7        e21                  6
    x7        e22                 10
    x7        e23                  4
    x7        e24                -10
    x7        e25                  6
    x7        e26                  7
    x7        e27                 -7
    x7        e28                  3
    x7        e29                 10
    x7        e30                 10
    x8        obj                  0
    x8        e1                  -6
    x8        e2                   5
    x8        e3                   2
    x8        e4                   4
    x8        e5                   5
    x8        e6                  -9
    x8        e7                   4
    x8        e8                  -6
    x8        e9                  -6
    x8        e10                  4
    x8        e11                 -5
    x8        e12                 -7
    x8        e13                  5
    x8        e14                 -5
    x8        e15                  8
    x8        e16                 -3
    x8        e17                 -7
    x8        e18                 -7
    x8        e19                 -9
    x8        e20                  7
    x8        e21                  0
    x8        e22                  6
    x8        e23                  1
    x8        e24                  8
    x8        e25                  5
    x8        e26                 -8
    x8        e27                  5
    x8        e28                 -3
    x8        e29                  1
    x8        e30                  1
    x9        obj                  0
    x9        e1                 -10
    x9        e2                 -10
    x9        e3                  -2
    x9        e4                   1
    x9        e5                  -9
    x9        e6                   6
    x9        e7                   7
    x9        e8                   5
    x9        e9                   0
    x9        e10                  1
    x9        e11                  2
    x9        e12                  5
    x9        e13                 10
    x9        e14                  8
    x9        e15                  0
    x9        e16                 10
    x9        e17                  7
    x9        e18                  1
    x9        e19                  3
    x9        e20                 -6
    x9        e21                  7
    x9        e22                 -7
    x9        e23                  8
    x9        e24                 -6
    x9        e25                  7
    x9        e26                 -2
    x9        e27                  7
    x9        e28                  1
    x9        e29                  3
    x9        e30                  3
    x10       obj                  0
    x10       e1                   6
    x10       e2                  -3
    x10       e3                  -2
    x10       e4                   8
    x10       e5                   0
    x10       e6                  -9
    x10       e7                  -6
    x10       e8                   7
    x10       e9                 -10
    x10       e10                  9
    x10       e11                  9
    x10       e12                 -9
    x10       e13                  2
    x10       e14                -10
    x10       e15                 -3
    x10       e16                  5
    x10       e17                 -9
    x10       e18                  1
    x10       e19                 -2
    x10       e20                 -5
    x10       e21                 -6
    x10       e22                 10
    x10       e23                 -2
    x10       e24                  2
    x10       e25                 10
    x10       e26                  5
    x10       e27                  1
    x10       e28                  2
    x10       e29                 -2
    x10       e30                 -2
    x11       obj                  0
    x11       e1                  -6
    x11       e2                   8
    x11       e3                   3
    x11       e4                  -6
    x11       e5                 -10
    x11       e6                   7
    x11       e7                  -9
    x11       e8                  -9
    x11       e9                  -5
    x11       e10                  9
    x11       e11                 10
    x11       e12                 -6
    x11       e13                 -9
    x11       e14                  2
    x11       e15                 -6
    x11       e16                  2
    x11       e17                 -6
    x11       e18                 -6
    x11       e19                  2
    x11       e20                 -6
    x11       e21                  2
    x11       e22                 -4
    x11       e23                  5
    x11       e24                 -5
    x11       e25                  2
    x11       e26                 -3
    x11       e27                  0
    x11       e28                 -6
    x11       e29                  1
    x11       e30                  1
    x12       obj                  0
    x12       e1                   8
    x12       e2                  -3
    x12       e3                   1
    x12       e4                   8
    x12       e5                   0
    x12       e6                  10
    x12       e7                  10
    x12       e8                   7
    x12       e9                  -6
    x12       e10                 -2
    x12       e11                -10
    x12       e12                  6
    x12       e13                 -3
    x12       e14                 -5
    x12       e15                  1
    x12       e16                  8
    x12       e17                  2
    x12       e18                 10
    x12       e19                 -4
    x12       e20                 -4
    x12       e21                  7
    x12       e22                  9
    x12       e23                 -3
    x12       e24                  4
    x12       e25                  5
    x12       e26                 -7
    x12       e27                 -7
    x12       e28                 -3
    x12       e29                  2
    x12       e30                  2
    x13       obj                  0
    x13       e1                   2
    x13       e2                  -2
    x13       e3                   9
    x13       e4                  -2
    x13       e5                   2
    x13       e6                   2
    x13       e7                   8
    x13       e8                  -8
    x13       e9                 -10
    x13       e10                 -1
    x13       e11                  0
    x13       e12                 10
    x13       e13                 -3
    x13       e14                 -6
    x13       e15                  6
    x13       e16                 -8
    x13       e17                -10
    x13       e18                  1
    x13       e19                  1
    x13       e20                 -5
    x13       e21                 -1
    x13       e22                 10
    x13       e23                 -5
    x13       e24                  8
    x13       e25                 -2
    x13       e26                 -1
    x13       e27                -10
    x13       e28                 -1
    x13       e29                 -1
    x13       e30                 -1
    x14       obj                  0
    x14       e1                   1
    x14       e2                  -5
    x14       e3                   0
    x14       e4                   0
    x14       e5                  -6
    x14       e6                  -5
    x14       e7                  -5
    x14       e8                   6
    x14       e9                   0
    x14       e10                  8
    x14       e11                  4
    x14       e12                 -1
    x14       e13                 10
    x14       e14                -10
    x14       e15                 -4
    x14       e16                 -2
    x14       e17                  3
    x14       e18                  5
    x14       e19                 -6
    x14       e20                 -3
    x14       e21                 -3
    x14       e22                  9
    x14       e23                  7
    x14       e24                 -9
    x14       e25                 -5
    x14       e26                 -6
    x14       e27                 -3
    x14       e28                 -4
    x14       e29                 -7
    x14       e30                 -7
    x15       obj                  0
    x15       e1                   4
    x15       e2                   3
    x15       e3                  -8
    x15       e4                 -10
    x15       e5                  10
    x15       e6                   1
    x15       e7                  10
    x15       e8                   0
    x15       e9                   9
    x15       e10                  4
    x15       e11                  7
    x15       e12                 -9
    x15       e13                 -1
    x15       e14                -10
    x15       e15                  7
    x15       e16                 -2
    x15       e17                  2
    x15       e18                 10
    x15       e19                 -6
    x15       e20                -10
    x15       e21                  2
    x15       e22                  6
    x15       e23                  7
    x15       e24                  2
    x15       e25                 -3
    x15       e26                  1
    x15       e27                 -3
    x15       e28                  5
    x15       e29                  5
    x15       e30                  5
    x16       obj                  0
    x16       e1                  -9
    x16       e2                  -8
    x16       e3                  -1
    x16       e4                   2
    x16       e5                  -2
    x16       e6                   8
    x16       e7                   6
    x16       e8                 -10
    x16       e9                  -4
    x16       e10                  3
    x16       e11                  5
    x16       e12                -10
    x16       e13                  0
    x16       e14                  0
    x16       e15                  2
    x16       e16                  6
    x16       e17                  3
    x16       e18                  6
    x16       e19                 -7
    x16       e20                  6
    x16       e21                  1
    x16       e22                 -7
    x16       e23                 -8
    x16       e24                 -8
    x16       e25                  7
    x16       e26                 -7
    x16       e27                  5
    x16       e28                  1
    x16       e29                 -1
    x16       e30                 -1
    x17       obj                  0
    x17       e1                   7
    x17       e2                   8
    x17       e3                 -10
    x17       e4                   5
    x17       e5                   3
    x17       e6                  -8
    x17       e7                  -9
    x17       e8                  -8
    x17       e9                  -9
    x17       e10                 -5
    x17       e11                  5
    x17       e12                  2
    x17       e13                 -5
    x17       e14                  6
    x17       e15                 -8
    x17       e16                  1
    x17       e17                 -7
    x17       e18                 -9
    x17       e19                  9
    x17       e20                 -6
    x17       e21                  2
    x17       e22                 -2
    x17       e23                  6
    x17       e24                 10
    x17       e25                  1
    x17       e26                 -6
    x17       e27                 -1
    x17       e28                 -1
    x17       e29                 -7
    x17       e30                 -7
    x18       obj                  0
    x18       e1                   3
    x18       e2                   4
    x18       e3                   5
    x18       e4                   6
    x18       e5                  -6
    x18       e6                  -8
    x18       e7                   0
    x18       e8                  -7
    x18       e9                   3
    x18       e10                -10
    x18       e11                 -8
    x18       e12                  0
    x18       e13                 -3
    x18       e14                -10
    x18       e15                 -6
    x18       e16                  7
    x18       e17                  4
    x18       e18                 -4
    x18       e19                  1
    x18       e20                  5
    x18       e21                  5
    x18       e22                  9
    x18       e23                 -5
    x18       e24                  8
    x18       e25                 -5
    x18       e26                 -9
    x18       e27                 -2
    x18       e28                  2
    x18       e29                  4
    x18       e30                  4
    x19       obj                  0
    x19       e1                  10
    x19       e2                  -3
    x19       e3                 -10
    x19       e4                  -6
    x19       e5                   9
    x19       e6                   7
    x19       e7                  -8
    x19       e8                   3
    x19       e9                  10
    x19       e10                  4
    x19       e11                 -9
    x19       e12                 -5
    x19       e13                  1
    x19       e14                 -9
    x19       e15                  3
    x19       e16                -10
    x19       e17                  9
    x19       e18                 -2
    x19       e19                 -5
    x19       e20                  1
    x19       e21                  6
    x19       e22                 -5
    x19       e23                -10
    x19       e24                  2
    x19       e25                 -1
    x19       e26                 -6
    x19       e27                 -3
    x19       e28                  9
    x19       e29                 -6
    x19       e30                 -6
RHS
    rhs       e1                  -3
    rhs       e2                   4
    rhs       e3                  -4
    rhs       e4                  -8
    rhs       e5                   2
    rhs       e6                  -2
    rhs       e7                  10
    rhs       e8                   1
    rhs       e9                  -1
    rhs       e10                 -4
    rhs       e11                  2
    rhs       e12                 -6
    rhs       e13                 -5
    rhs       e14                 -7
    rhs       e15                  1
    rhs       e16                  9
    rhs       e17                 -5
    rhs       e18                  8
    rhs       e19                  3
    rhs       e20                 -1
    rhs       e21                  3
    rhs       e22                 -8
    rhs       e23                 -5
    rhs       e24                 -3
    rhs       e25                 -6
    rhs       e26                  7
    rhs       e27                  5
    rhs       e28                 -7
    rhs       e29                 -3
    rhs       e30                 -4
BOUNDS
 LO bnd       x0                  -5
 LO bnd       x1                   5
 LO bnd       x2                  -7
 LO bnd       x3                   2
 LO bnd       x4                   4
 LO bnd       x5                   4
 LO bnd       x6                   9
 LO bnd       x7                   2
 LO bnd       x8                  -1
 LO bnd       x9                  -3
 LO bnd       x10                  6
 LO bnd       x11                -10
 LO bnd       x12                  5
 LO bnd       x13                  2
 LO bnd       x14                  3
 LO bnd       x15                  8
 LO bnd       x16                  3
 LO bnd       x17                 -2
 LO bnd       x18                  0
 LO bnd       x19                 -7
 UP bnd       x0                   0
 UP bnd       x1                   8
 UP bnd       x2                   3
 UP bnd       x3                   8
 UP bnd       x4                  12
 UP bnd       x5                  13
 UP bnd       x6                  12
 UP bnd       x7                  10
 UP bnd       x8                   6
 UP bnd       x9                   2
 UP bnd       x10                 16
 UP bnd       x11                 -9
 UP bnd       x12                 10
 UP bnd       x13                  5
 UP bnd       x14                  3
 UP bnd       x15                  8
 UP bnd       x16                  4
 UP bnd       x17                  1
 UP bnd       x18                  2
 UP bnd       x19                 -5
ENDATA
